p cnf 150 30
x -2 -9 -11 -14 15 -20 21 -22 -23 -29 -31 34 37 38 -39 46 47 -51 -52 54 55 -57 -58 60 61 -62 63 -66 67 -68 -69 -70 -71 -73 -76 -77 -79 80 -84 -89 92 93 -95 98 -100 -104 -105 108 -112 -115 116 117 -120 121 123 124 126 -127 -130 -132 133 -139 140 142 145 147 149 0
x -3 -4 9 -15 16 17 23 25 -28 29 -30 -34 37 38 39 40 -41 46 48 -57 -58 59 62 -63 -65 -66 68 71 75 -78 80 -81 83 86 -88 -92 -93 -95 -96 -99 100 101 103 104 -109 110 -111 -112 114 117 -118 122 -123 -125 126 130 -132 134 135 138 141 -143 -144 -145 148 -150 0
x -2 3 -4 5 -7 8 11 -12 13 14 -17 -18 19 20 21 24 -26 30 31 -32 -34 -36 -39 -40 -41 44 46 48 -50 -52 -55 -57 -58 -59 -60 61 -63 -67 68 70 -72 -73 -76 -78 79 80 82 86 87 89 91 92 95 -96 97 -100 -102 -104 -105 -107 108 -110 113 -115 118 124 -126 -128 129 130 -131 133 134 135 -139 -146 -147 0
x 2 -4 6 7 -8 10 11 12 14 -16 19 -22 -23 -24 25 -27 -28 -29 -30 -31 33 -35 -36 -37 -39 40 42 -44 45 -46 47 49 52 53 56 -61 62 -63 -67 72 -74 79 -82 -85 86 -89 -90 91 92 -93 94 96 99 102 105 106 107 108 109 113 117 -119 122 -123 -124 125 -126 128 -132 -133 135 136 -137 -138 139 141 -145 148 -150 0
x 3 -5 -8 -10 -13 -15 -17 -20 21 23 -26 -28 -29 -30 -31 -32 -33 -34 35 41 42 -45 -46 49 51 54 -57 -59 -63 -67 68 69 70 -71 73 74 -75 76 -78 -79 -80 82 -83 84 -86 -87 91 92 -94 96 98 -100 102 103 -105 107 117 118 -119 121 -124 -127 -130 131 -133 -138 144 -147 -148 149 0
x -1 2 -3 4 5 -6 -8 10 -11 -13 -15 -16 -23 -24 -25 26 27 -28 -29 30 -32 -33 -34 35 -36 -39 -40 42 43 -45 -47 -48 -50 57 -62 63 66 69 -71 73 -74 77 80 81 -82 -84 86 90 -94 -95 -97 99 101 -102 103 -105 106 -107 -111 112 -115 116 -117 120 -122 125 128 129 -130 -132 133 -138 -141 -148 0
x -3 4 -5 7 9 10 11 -12 -13 17 19 21 -22 31 32 -37 -38 -40 -42 -46 -48 49 -50 -51 -52 55 58 -59 -67 -71 -72 -74 -75 76 -78 79 80 82 -83 -84 -85 -86 -87 -88 89 91 92 95 96 -98 -101 -103 104 105 -107 -108 -109 110 -111 -112 -113 -115 116 -118 119 121 -123 128 129 130 -131 132 -134 136 -138 139 142 -150 0
x 3 5 -9 10 11 15 16 -18 -19 -20 -21 -23 24 -26 -27 -28 -29 32 -33 -34 35 37 39 -40 -41 -42 46 47 -48 -49 51 52 -53 55 -59 60 -64 -66 67 69 72 -73 -77 -81 82 -83 -84 87 -88 -89 -90 91 -92 94 97 98 100 -102 103 107 109 112 -114 -115 -118 119 -120 -121 122 -123 -124 125 -126 -129 131 -134 135 136 139 140 -141 144 -145 147 149 -150 0
x -1 2 -4 -5 7 9 11 13 14 16 -17 18 19 22 23 26 -31 32 -33 34 -35 37 -39 44 -45 -47 48 -49 -50 -51 -52 -55 61 -62 64 65 -69 -70 -71 76 78 -80 81 82 83 84 85 -93 -94 96 97 -98 -99 102 105 -106 108 110 -116 -117 118 121 122 123 -124 125 128 -129 130 -131 133 -134 -136 137 -138 -139 142 -143 -145 -146 147 -148 150 0
x -4 -5 6 8 9 -11 13 -15 17 19 -20 -22 24 25 28 29 -30 34 -37 39 41 -43 -44 48 49 -51 -52 -53 54 55 57 58 -59 60 61 -62 -63 65 -71 -73 76 -79 -81 -84 85 88 89 91 92 -93 -94 101 104 -108 -111 113 -114 119 -121 -123 -128 -130 131 132 137 -138 -142 -145 147 -149 0
x 2 4 8 9 10 12 13 -17 -19 23 24 -25 -26 27 29 -30 31 -34 39 -43 -45 -49 -50 52 -54 58 59 -64 -65 67 -68 71 73 77 -78 79 -81 82 -83 84 88 90 91 92 95 -96 -97 98 -102 104 -106 107 -108 112 115 -119 -122 125 127 -130 132 134 135 137 -138 140 142 145 -147 -148 150 0
x -1 3 -4 -8 -10 -12 -13 15 -18 -19 23 -24 -26 -27 -29 -30 -31 34 -35 37 40 -41 42 44 -50 62 64 66 -70 71 73 -76 77 79 -81 -82 -84 85 -87 88 92 93 -95 101 -102 -107 -108 -109 -111 -112 116 117 118 121 -122 123 -124 125 126 127 128 129 131 133 -134 -135 -137 139 141 -142 144 -147 0
x 1 -2 5 8 -11 14 17 19 20 -26 27 -33 -34 -35 36 37 40 42 -46 -47 -48 53 54 58 -60 -61 -63 -64 65 -66 -68 70 71 72 73 74 -76 77 -80 -82 83 -84 -85 86 89 -90 91 -93 -95 96 101 -102 103 -105 -108 -109 110 -111 -114 117 118 119 120 -122 123 124 125 -127 -129 130 131 132 -134 135 137 138 -139 141 148 0
x 3 -6 10 12 13 14 -15 -16 -18 -19 -20 -22 23 -27 -29 30 31 -34 35 -39 43 -44 -45 -46 49 -50 -53 55 -59 -61 -65 -67 68 -70 -71 73 75 -80 85 86 87 89 -90 93 96 97 98 99 -100 -103 -104 105 106 -108 -113 114 116 117 -118 -119 -120 -121 -125 -127 -129 131 -134 138 142 144 145 146 0
x 4 -7 9 10 -12 -13 14 -15 17 18 22 23 27 -31 32 33 -34 -40 -41 43 -46 48 -49 -55 57 60 61 63 64 -72 74 75 -77 -79 80 86 -88 -89 90 91 -92 97 100 101 105 -107 108 109 -110 -112 -113 114 117 -118 -119 120 122 123 -125 126 -129 131 139 -140 -142 -145 -148 149 0
x 1 2 5 6 -7 9 -11 -12 -13 -15 -17 -21 -23 27 -28 -29 -30 -32 39 40 -41 -44 -45 46 -49 -50 52 56 57 60 62 -63 -68 70 -71 -72 74 75 76 77 78 79 -81 -83 87 89 -91 -92 94 95 96 -97 98 -99 -100 -102 104 106 109 -111 112 -115 -116 -117 120 -123 -125 126 -128 -129 130 -131 -133 135 138 -139 140 141 -143 -149 0
x -1 -2 -3 -5 7 -9 -11 12 15 -20 22 -25 26 -28 -30 -34 37 43 -45 -47 -48 -49 -50 51 -52 53 -57 -58 -60 -61 -62 63 -64 65 67 69 -76 79 85 -86 -87 91 -93 -94 -98 -101 -102 109 110 -112 113 -114 116 118 119 -122 123 124 -125 -126 -128 130 -134 -137 -138 140 -141 144 -145 150 0
x -5 6 7 9 -10 11 -14 -22 -23 -24 -25 26 28 -29 32 37 -38 -39 -40 42 -43 -45 47 -48 -50 -52 53 55 -59 63 64 65 68 69 70 -73 -74 -76 -78 -79 -82 84 -85 -86 87 90 91 -93 99 -101 -102 109 111 113 116 -117 -118 -119 -121 122 -124 126 127 128 130 -131 138 142 143 144 146 147 148 150 0
x -1 2 3 4 5 6 7 -8 9 15 -16 -17 -18 -19 20 22 -24 25 28 30 37 -43 44 -45 -46 48 49 -50 -51 -52 -53 56 -58 -60 61 -62 -64 65 68 69 -71 -72 -78 -79 -80 -82 -83 -85 -87 88 -89 -90 91 -95 97 -98 -99 -100 102 -103 104 -106 109 110 114 116 119 -120 123 -127 -132 134 -135 141 -143 144 -145 146 147 149 150 0
x 1 -2 7 8 -9 -11 12 -15 -18 -20 21 -22 -25 26 -28 -29 -30 32 -33 -35 36 37 -38 40 43 44 -45 46 47 48 50 -54 -55 -56 -57 59 -61 64 65 67 -68 -70 71 72 -73 -75 76 77 79 81 82 -83 -84 -88 -89 -90 94 95 96 -98 101 -104 106 108 109 -113 -114 120 121 122 -123 124 -128 129 130 -131 132 134 135 136 137 138 -139 -140 141 -142 -143 -146 0
x -2 3 -4 -5 -6 -7 10 11 12 19 -22 24 -25 26 28 29 -33 35 -39 -42 -43 -44 -47 -48 49 -50 -51 53 -54 55 59 61 -63 67 68 -69 75 -79 80 81 82 85 -86 87 -88 -90 92 -95 -96 -98 100 101 103 -104 -105 107 108 109 -111 112 -115 116 118 119 -121 122 128 -129 -133 135 -136 137 -138 141 -145 147 -149 0
x -2 -5 8 10 14 -15 -16 19 20 -22 -23 -24 -26 -28 29 -30 -34 -35 39 41 42 44 -49 -50 51 -52 53 -55 56 -61 62 -64 65 68 69 71 73 -74 75 -76 -80 82 -83 -86 -88 -93 -94 -95 96 97 98 -101 -102 103 -106 -108 -109 -110 -112 -113 115 -117 -118 -119 -121 123 -127 130 -131 132 -135 136 138 139 142 143 -144 -145 146 -148 -150 0
x 2 -3 6 9 11 -13 16 -17 18 -20 21 -23 24 29 -30 -31 32 -35 38 42 43 44 46 -51 -54 55 -56 57 61 64 65 -67 68 -69 -70 75 76 -80 82 -85 -86 -88 -91 92 93 -94 -95 -96 101 103 -106 -110 114 -116 118 119 120 -122 -124 -127 -129 -132 -134 -135 -140 -142 -143 -145 147 148 149 -150 0
x 1 -2 3 5 9 11 13 14 17 19 20 22 -29 -30 -32 -34 -36 38 -39 40 42 -44 45 46 51 -52 56 -59 60 61 62 63 -65 -66 -69 -71 -72 -73 74 -77 79 80 81 -85 87 93 94 -100 -104 -105 108 110 -112 113 114 115 118 -120 122 -123 -124 126 128 -131 -132 -134 -136 138 139 141 143 -146 -149 -150 0
x 1 -2 -3 -4 9 -10 -19 -21 -24 -26 -28 -29 -30 31 -34 -35 36 43 45 -47 -48 50 -52 -54 57 -61 -62 -63 -67 68 69 70 -71 -72 -73 77 -80 83 -84 85 -86 87 -90 91 93 -94 -95 -99 -102 105 -108 109 112 115 -116 117 118 -119 122 -125 -126 129 132 133 135 136 138 -140 -141 -149 150 0
x 2 3 -4 5 -6 11 -14 -15 -17 -18 19 21 -22 -24 28 -29 31 -33 -34 35 -37 38 40 41 -43 -45 -48 -50 -52 -53 -55 56 -57 60 62 64 -70 -71 72 74 -75 -77 -84 88 89 90 94 -95 96 102 103 104 -105 106 -107 110 112 113 -114 -115 -117 119 123 -124 -134 -135 -136 -138 -142 -146 148 -149 0
x 2 -4 -8 -10 11 14 -15 16 -19 20 -21 22 28 -30 -32 -36 -37 -39 -44 46 50 51 -55 59 60 -61 -62 63 65 67 -69 72 76 77 -80 -81 -83 86 87 -89 -91 -94 95 -96 102 103 -105 -106 108 -110 -111 -115 -117 -118 -120 -122 -123 124 -126 127 -128 134 -135 -137 141 -142 -143 -145 -146 148 150 0
x 1 2 8 9 10 12 -15 -17 18 -20 24 25 -26 -27 -30 32 -33 -34 38 -40 -41 -42 -44 -45 46 -47 -48 50 -54 -57 -58 -59 -61 65 67 69 -72 73 75 76 77 -78 -79 81 -82 -85 86 88 -92 93 100 101 -102 103 106 -109 -111 114 115 117 -121 -124 125 127 128 129 130 -133 136 139 -140 -141 -142 -143 -144 -145 148 -149 0
x 2 4 -9 -12 -16 -17 -18 19 20 22 -24 -30 -31 -33 -41 43 45 47 -48 -54 56 -59 60 62 -64 -65 66 67 69 71 73 -74 75 77 80 -81 -82 84 86 -89 90 -91 92 -99 103 104 105 109 -112 -115 118 119 -120 123 124 -125 -126 -130 -131 -132 -135 141 144 -146 148 -149 150 0
x 3 -4 -8 -10 12 13 17 18 28 32 -33 -35 36 39 -42 -45 48 -50 52 -53 56 57 58 63 -70 71 -72 76 -77 82 -84 88 90 -92 -96 97 98 99 100 -101 -102 103 104 -107 108 109 -115 116 117 121 122 123 124 125 126 127 -128 129 -130 131 -134 -135 -136 -137 -139 142 144 -145 -146 147 -148 -149 0
g -30